c ---- [ banner ] ------------------------------------------------------------
c
c Kissat SAT Solver
c 
c Copyright (c) 2021-2024 Armin Biere University of Freiburg
c Copyright (c) 2019-2021 Armin Biere Johannes Kepler University Linz
c 
c Version 4.0.1 43f02cf3e992cb44653b35e5cb26f93281552ae0
c gcc (Ubuntu 13.2.0-23ubuntu4) 13.2.0 -W -Wall -O3 -DNDEBUG
c Thu Sep 12 12:27:46 CEST 2024 Linux abryzen9 6.8.0-41-generic x86_64
c
c ---- [ parsing ] -----------------------------------------------------------
c
c opened and reading DIMACS file:
c
c   /data/artifact/AMulet2.0_artifact/exp4/cnf_dc2_64/64_64_U1_DT_LF_Multgen_dc2.cnf
c
c parsed 'p cnf 29025 128003' header
c closing input after reading 2559799 bytes (2 MB)
c finished parsing after 0.02 seconds
c
c ---- [ options ] -----------------------------------------------------------
c
c --stable=0                       (different from default '1')
c
c ---- [ solving ] -----------------------------------------------------------
c
c  seconds switched rate     size/glue tier1  binary           remaining
c         MB reductions conflicts size  tier2     irredundant
c          level restarts redundant glue  trail           variables
c
c *  0.02 10 0 0 0  0 0   0   0 0.0 0 0 0 0 0% 11076 116925 29022 100%
c (  0.04 12 0 0 0  0 0   0   0 0.0 0 0 0 0 0% 11076 116925 29022 100%
c .  0.04 12 0 0 0  0 0   0   0 0.0 0 0 0 0 0% 11072 116925 29022 100%
c c  0.09 17 0 0 0  0 0   0   0 0.0 0 0 0 0 0% 17632 103805 25742 89%
c d  0.10 17 0 0 0  0 0   0   0 0.0 0 0 0 0 0% 11072 103805 25742 89%
c =  0.14 17 0 0 0  0 0   0   0 0.0 0 0 0 0 0% 11592 103803 25482 88%
c d  0.14 17 0 0 0  0 0   0   0 0.0 0 0 0 0 0% 11072 103803 25482 88%
c f  0.22 17 0 0 0  0 0   0   0 0.0 0 0 0 0 0% 15674 96568 28067 97%
c e  0.34 25 0 0 0  0 0   0   0 0.0 0 0 0 0 0% 9632 104279 19248 66%
c )  0.34 25 0 0 0  0 0   0   0 0.0 0 0 0 0 0% 9632 104279 19248 66%
c {  0.35 25 0 0 0  0 0   0   0 0.0 0 0 2 6 0% 9632 104279 19248 66%
c -  0.48 27 367 0 1 136 46 1001 743 4.2 24 6 4 12 26% 9664 104279 19248 66%
c -  0.67 27 355 0 2 261 44 2002 1440 4.0 24 6 4 11 28% 9690 104279 19248 66%
c c  0.89 23 331 0 2 371 48 2504 1852 4.4 27 6 4 11 29% 9769 103941 19198 66%
c d  0.90 23 331 0 2 371 48 2504 1830 4.4 27 6 4 11 29% 9669 103941 19198 66%
c u  0.91 23 331 0 2 371 48 2504 1426 4.4 27 6 4 11 29% 9675 103941 19198 66%
c v  0.93 23 331 0 2 371 48 2504 1307 4.4 27 6 4 11 29% 9675 103941 19198 66%
c w  0.94 24 331 0 2 371 48 2504 1307 4.4 27 6 4 11 29% 9675 103941 19198 66%
c x  0.95 24 331 0 2 371 48 2504 1307 4.4 27 6 4 11 29% 9675 103925 19198 66%
c =  1.00 24 331 0 2 371 48 2504 1307 4.4 27 6 4 11 29% 10015 103923 19028 66%
c
c  seconds   switched   rate       size/glue tier1     binary          remaining
c         MB  reductions conflicts       size  tier2      irredundant
c           level restarts    redundant    glue    trail          variables
c
c d  1.01 24 331 0 2 371 48 2504 1301 4.4 27 6 4 11 29% 9672 103923 19027 66%
c f  1.04 24 331 0 2 371 48 2504 1301 4.4 27 6 4 11 29% 10242 102786 19594 68%
c c  1.08 24 331 0 2 371 48 2504 1301 4.4 27 6 4 11 29% 10246 102770 19592 68%
c d  1.09 24 331 0 2 371 48 2504 1301 4.4 27 6 4 11 29% 10242 102770 19592 68%
c u  1.10 24 331 0 2 371 48 2504 1265 4.4 27 6 4 11 29% 10245 102770 19592 68%
c v  1.11 24 331 0 2 371 48 2504 1213 4.4 27 6 4 11 29% 10245 102770 19592 68%
c w  1.14 24 331 0 2 371 48 2504 1211 4.4 27 6 4 11 29% 10245 102770 19592 68%
c =  1.20 24 331 0 2 371 48 2504 1211 4.4 27 6 4 11 29% 10411 102770 19509 67%
c d  1.20 24 331 0 2 371 48 2504 1208 4.4 27 6 4 11 29% 10221 102770 19508 67%
c f  1.23 24 331 0 2 371 48 2504 1208 4.4 27 6 4 11 29% 10253 102721 19525 67%
c -  1.39 24 355 0 3 473 47 3416 1724 4.2 26 6 3 11 28% 10287 102721 19525 67%
c -  1.73 24 378 0 4 669 45 5150 2834 4.2 25 6 3 10 26% 10331 102721 19525 67%
c -  2.35 27 398 0 5 956 46 7150 3989 4.3 28 7 3 10 27% 10395 102721 19525 67%
c d  2.55 27 388 0 5 1040 46 7707 4496 4.4 29 7 3 10 28% 10339 102721 19494 67%
c u  2.58 27 388 0 5 1040 46 7707 3730 4.4 29 7 3 10 28% 10359 102721 19494 67%
c v  2.62 27 388 0 5 1040 46 7707 3405 4.4 29 7 3 10 28% 10359 102721 19494 67%
c w  2.67 27 388 0 5 1040 46 7707 3402 4.4 29 7 3 10 28% 10359 102721 19494 67%
c x  2.70 27 388 0 5 1040 46 7707 3402 4.4 29 7 3 10 28% 10359 102080 19494 67%
c =  2.84 27 388 0 5 1040 46 7707 3402 4.4 29 7 3 10 28% 11451 102080 18948 65%
c d  2.85 27 388 0 5 1040 46 7707 3371 4.4 29 7 3 10 28% 10208 102080 18947 65%
c
c  seconds   switched    rate       size/glue tier1     binary           remaining
c         MB  reductions  conflicts       size  tier2       irredundant
c           level  restarts    redundant    glue    trail           variables
c
c t  2.86 27 388 0 5 1040 46 7707 3371 4.4 29 7 3 10 28% 10202 102080 18947 65%
c f  2.91 27 388 0 5 1040 46 7707 3371 4.4 29 7 3 10 28% 10782 101200 19237 66%
c u  2.98 27 388 0 5 1040 46 7707 3229 4.4 29 7 3 10 28% 10784 101200 19237 66%
c v  2.99 27 388 0 5 1040 46 7707 3152 4.4 29 7 3 10 28% 10784 101200 19237 66%
c w  3.03 27 388 0 5 1040 46 7707 3139 4.4 29 7 3 10 28% 10784 101200 19237 66%
c x  3.05 27 388 0 5 1040 46 7707 3139 4.4 29 7 3 10 28% 10784 101183 19237 66%
c =  3.15 27 388 0 5 1040 46 7707 3139 4.4 29 7 3 10 28% 11572 101181 18843 65%
c d  3.16 27 388 0 5 1040 46 7707 3133 4.4 29 7 3 10 28% 10610 101181 18843 65%
c t  3.17 27 388 0 5 1040 46 7707 3133 4.4 29 7 3 10 28% 10550 101181 18843 65%
c f  3.21 27 388 0 5 1040 46 7707 3133 4.4 29 7 3 10 28% 12985 97526 20061 69%
c -  3.84 27 371 0 6 1205 43 9386 3955 4.1 29 7 2 10 28% 13026 97526 20061 69%
c o  4.00 27 363 0 6 1231 41 10038 4495 4.1 28 7 2 10 27% 13049 97526 20061 69%
c -  4.34 27 394 0 7 1391 41 11836 5283 4.3 32 7 2 10 28% 13090 97526 20061 69%
c s  4.50 27 388 0 7 1449 40 12508 5894 4.3 32 7 2 10 27% 13102 92041 20061 69%
c e  4.58 27 388 0 7 1449 40 12508 5894 4.3 32 7 2 10 27% 12162 92638 19513 67%
c s  4.58 27 388 0 7 1449 40 12508 5894 4.3 32 7 2 10 27% 12167 92175 19513 67%
c e  4.59 27 388 0 7 1449 40 12508 5894 4.3 32 7 2 10 27% 12151 92175 19505 67%
c ^  4.59 27 388 0 7 1449 40 12508 5894 4.3 32 7 2 10 27% 12151 92175 19505 67%
c -  4.93 27 367 0 8 1620 39 14482 6217 4.2 32 8 2 10 28% 12211 92175 19505 67%
c d  5.10 27 364 0 8 1718 37 15785 7304 4.2 32 8 2 10 28% 11890 92171 19307 67%
c
c  seconds   switched    rate        size/glue tier1     binary          remaining
c         MB  reductions   conflicts       size  tier2       irredundant
c           level  restarts     redundant    glue    trail          variables
c
c u  5.13 27 364 0 8 1718 37 15785 6543 4.2 32 8 2 10 28% 11913 92171 19307 67%
c v  5.17 27 364 0 8 1718 37 15785 5632 4.2 32 8 2 10 28% 11913 92171 19307 67%
c w  5.25 27 364 0 8 1718 37 15785 5601 4.2 32 8 2 10 28% 11913 92171 19307 67%
c =  5.40 27 364 0 8 1718 37 15785 5601 4.2 32 8 2 10 28% 12345 92165 19091 66%
c d  5.41 27 364 0 8 1718 37 15785 5530 4.2 32 8 2 10 28% 11807 92165 19091 66%
c t  5.42 27 364 0 8 1718 37 15785 5530 4.2 32 8 2 10 28% 11735 92165 19091 66%
c f  5.46 27 364 0 8 1718 37 15785 5530 4.2 32 8 2 10 28% 11841 91952 19144 66%
c u  5.49 27 364 0 8 1718 37 15785 5380 4.2 32 8 2 10 28% 11842 91952 19144 66%
c v  5.51 27 364 0 8 1718 37 15785 5237 4.2 32 8 2 10 28% 11842 91952 19144 66%
c w  5.57 27 364 0 8 1718 37 15785 5230 4.2 32 8 2 10 28% 11842 91952 19144 66%
c x  5.60 27 364 0 8 1718 37 15785 5230 4.2 32 8 2 10 28% 11869 91447 19144 66%
c =  5.75 27 364 0 8 1718 37 15785 5230 4.2 32 8 2 10 28% 14449 91447 17854 62%
c d  5.76 27 364 0 8 1718 37 15785 5142 4.2 32 8 2 10 28% 10976 91447 17854 62%
c -  6.00 27 361 0 9 1813 36 17310 5727 4.2 32 8 2 10 28% 10999 91447 17854 62%
c o  6.55 27 351 0 9 2064 36 20043 8135 4.1 32 8 2 10 28% 11046 91447 17854 62%
c -  6.61 27 351 0 10 2106 36 20310 7361 4.1 32 8 2 10 28% 11051 91447 17854 62%
c -  7.32 27 341 0 11 2455 35 23472 8841 4.2 35 8 2 9 28% 11125 91447 17854 62%
c s  7.44 27 335 0 11 2503 34 25008 10150 4.1 34 8 2 9 28% 11151 86601 17854 62%
c e  7.52 27 335 0 11 2503 34 25008 10150 4.1 34 8 2 9 28% 8936 89575 16616 57%
c s  7.53 27 335 0 11 2503 34 25008 10150 4.1 34 8 2 9 28% 8939 89199 16616 57%
c
c  seconds   switched     rate         size/glue tier1    binary         remaining
c         MB   reductions   conflicts        size  tier2     irredundant
c           level   restarts      redundant    glue   trail         variables
c
c e  7.53 27 335 0 11 2503 34 25008 10150 4.1 34 8 2 9 28% 8929 89208 16613 57%
c ^  7.53 27 335 0 11 2503 34 25008 10150 4.1 34 8 2 9 28% 8929 89208 16613 57%
c -  7.72 27 341 0 12 2605 33 26790 9648 4.1 33 8 2 9 27% 8934 89208 16613 57%
c c  7.76 27 341 0 12 2605 33 26911 9751 4.1 33 8 2 9 27% 8973 89052 16593 57%
c d  7.76 27 341 0 12 2605 33 26911 9737 4.1 33 8 2 9 27% 8795 89052 16514 57%
c u  7.79 27 341 0 12 2605 33 26911 8504 4.1 33 8 2 9 27% 8804 89052 16514 57%
c v  7.82 27 341 0 12 2605 33 26911 7466 4.1 33 8 2 9 27% 8805 89052 16514 57%
c w  7.83 27 341 0 12 2605 33 26911 7466 4.1 33 8 2 9 27% 8805 89052 16514 57%
c x  7.88 27 341 0 12 2605 33 26911 7466 4.1 33 8 2 9 27% 8805 87836 16514 57%
c =  8.08 27 341 0 12 2605 33 26911 7466 4.1 33 8 2 9 27% 12351 87814 14740 51%
c d  8.08 27 341 0 12 2605 33 26911 7299 4.1 33 8 2 9 27% 8736 87814 14740 51%
c t  8.09 27 341 0 12 2605 33 26911 7299 4.1 33 8 2 9 27% 8734 87814 14740 51%
c f  8.13 27 341 0 12 2605 33 26911 7299 4.1 33 8 2 9 27% 8735 87796 14745 51%
c u  8.16 27 341 0 12 2605 33 26911 6866 4.1 33 8 2 9 27% 8739 87796 14745 51%
c v  8.18 27 341 0 12 2605 33 26911 6721 4.1 33 8 2 9 27% 8739 87796 14745 51%
c x  8.26 27 341 0 12 2605 33 26911 6721 4.1 33 8 2 9 27% 8740 80161 14745 51%
c =  8.42 27 341 0 12 2605 33 26911 6721 4.1 33 8 2 9 27% 9640 80161 14295 49%
c d  8.43 27 341 0 12 2605 33 26911 6627 4.1 33 8 2 9 27% 8721 80161 14295 49%
c t  8.44 27 341 0 12 2605 33 26911 6627 4.1 33 8 2 9 27% 8720 80161 14295 49%
c f  8.45 27 341 0 12 2605 33 26911 6627 4.1 33 8 2 9 27% 8722 80156 14296 49%
c
c  seconds   switched     rate        size/glue tier1    binary         remaining
c         MB   reductions   conflicts       size  tier2     irredundant
c           level   restarts     redundant    glue   trail         variables
c
c -  8.68 27 325 0 13 2729 31 30255 8493 4.0 31 8 2 9 27% 8761 80152 14296 49%
c -  9.15 27 311 0 14 2959 30 33862 10449 3.9 30 8 2 8 27% 8809 80152 14296 49%
c -  9.49 27 301 0 15 3108 28 37605 11997 3.7 29 8 2 8 26% 8831 80152 14296 49%
c o  9.79 27 298 0 15 3244 27 40045 14053 3.7 28 8 2 8 25% 8864 80152 14296 49%
c c 10.13 27 294 0 15 3387 27 41245 15110 3.7 28 8 2 8 25% 9006 79369 14170 49%
c d 10.14 27 294 0 15 3387 27 41245 14833 3.7 28 8 2 8 25% 8754 79369 14170 49%
c u 10.20 27 294 0 15 3387 27 41245 12438 3.7 28 8 2 8 25% 8789 79369 14170 49%
c v 10.24 27 294 0 15 3387 27 41245 11568 3.7 28 8 2 8 25% 8790 79369 14170 49%
c w 10.27 27 294 0 15 3387 27 41245 11568 3.7 28 8 2 8 25% 8790 79369 14170 49%
c x 10.32 27 294 0 15 3387 27 41245 11568 3.7 28 8 2 8 25% 8791 74556 14170 49%
c d 10.51 27 294 0 15 3387 27 41245 11543 3.7 28 8 2 8 25% 8775 74556 14162 49%
c t 10.52 27 294 0 15 3387 27 41245 11543 3.7 28 8 2 8 25% 8772 74556 14162 49%
c f 10.54 27 294 0 15 3387 27 41245 11543 3.7 28 8 2 8 25% 8776 74545 14164 49%
c c 10.60 27 294 0 15 3387 27 41245 11367 3.7 28 8 2 8 25% 8785 74505 14159 49%
c d 10.60 27 294 0 15 3387 27 41245 11367 3.7 28 8 2 8 25% 8775 74505 14159 49%
c u 10.65 27 294 0 15 3387 27 41245 10963 3.7 28 8 2 8 25% 8782 74505 14159 49%
c v 10.71 27 294 0 15 3387 27 41245 10059 3.7 28 8 2 8 25% 8787 74505 14159 49%
c w 10.76 27 294 0 15 3387 27 41245 10059 3.7 28 8 2 8 25% 8787 74505 14159 49%
c x 10.81 27 294 0 15 3387 27 41245 10059 3.7 28 8 2 8 25% 8787 73509 14159 49%
c d 10.82 27 294 0 15 3387 27 41245 10055 3.7 28 8 2 8 25% 8779 73509 14155 49%
c
c  seconds   switched     rate         size/glue tier1    binary         remaining
c         MB   reductions   conflicts        size  tier2     irredundant
c           level   restarts      redundant    glue   trail         variables
c
c t 10.83 27 294 0 15 3387 27 41245 10055 3.7 28 8 2 8 25% 8778 73509 14155 49%
c - 10.92 27 295 0 16 3416 27 41478 8953 3.7 29 8 2 8 26% 8778 73509 14155 49%
c - 11.40 27 291 0 17 3648 27 45480 10953 3.7 28 8 2 7 25% 8856 73508 14155 49%
c - 12.18 27 284 0 18 3992 27 49604 12856 3.6 28 8 2 7 25% 8903 73506 14155 49%
c s 12.45 27 276 0 18 4083 26 52110 14962 3.6 27 8 2 7 25% 8959 71868 14155 49%
c e 12.53 27 276 0 18 4083 26 52110 14962 3.6 27 8 2 7 25% 8498 72461 13819 48%
c s 12.54 27 276 0 18 4083 26 52110 14962 3.6 27 8 2 7 25% 8500 72192 13819 48%
c e 12.55 27 276 0 18 4083 26 52110 14962 3.6 27 8 2 7 25% 8500 72186 13816 48%
c ^ 12.55 27 276 0 18 4083 26 52110 14962 3.6 27 8 2 7 25% 8500 72186 13816 48%
c - 13.07 27 272 0 19 4301 26 53846 13653 3.6 28 8 2 7 25% 8514 72186 13816 48%
c - 13.66 27 261 0 20 4531 25 58204 15258 3.5 27 8 2 7 25% 8595 72186 13816 48%
c d 13.70 27 260 0 20 4537 25 58893 15755 3.5 27 8 2 7 25% 8523 72186 13775 47%
c u 13.78 27 260 0 20 4537 25 58893 13041 3.5 27 8 2 7 25% 8575 72186 13775 47%
c v 13.82 27 260 0 20 4537 25 58893 11831 3.5 27 8 2 7 25% 8585 72186 13775 47%
c w 13.83 27 260 0 20 4537 25 58893 11807 3.5 27 8 2 7 25% 8585 72186 13775 47%
c x 13.89 27 260 0 20 4537 25 58893 11806 3.5 27 8 2 7 25% 8585 71229 13775 47%
c = 14.05 27 260 0 20 4537 25 58893 11806 3.5 27 8 2 7 25% 8719 71229 13708 47%
c d 14.06 27 260 0 20 4537 25 58893 11707 3.5 27 8 2 7 25% 8519 71229 13684 47%
c t 14.07 27 260 0 20 4537 25 58893 11707 3.5 27 8 2 7 25% 8513 71229 13684 47%
c f 14.08 27 260 0 20 4537 25 58893 11707 3.5 27 8 2 7 25% 8508 71229 13685 47%
c
c  seconds   switched     rate         size/glue tier1    binary         remaining
c         MB   reductions   conflicts        size  tier2     irredundant
c           level   restarts      redundant    glue   trail         variables
c
c c 14.12 27 260 0 20 4537 25 58893 11693 3.5 27 8 2 7 25% 8558 71025 13660 47%
c d 14.12 27 260 0 20 4537 25 58893 11662 3.5 27 8 2 7 25% 8508 71025 13660 47%
c u 14.15 27 260 0 20 4537 25 58893 11002 3.5 27 8 2 7 25% 8521 71025 13660 47%
c v 14.18 27 260 0 20 4537 25 58893 10593 3.5 27 8 2 7 25% 8522 71025 13660 47%
c w 14.20 27 260 0 20 4537 25 58893 10585 3.5 27 8 2 7 25% 8522 71025 13660 47%
c x 14.27 27 260 0 20 4537 25 58893 10585 3.5 27 8 2 7 25% 8523 70878 13660 47%
c = 14.46 27 260 0 20 4537 25 58893 10585 3.5 27 8 2 7 25% 9011 70878 13416 46%
c d 14.46 27 260 0 20 4537 25 58893 10421 3.5 27 8 2 7 25% 8490 70878 13408 46%
c t 14.47 27 260 0 20 4537 25 58893 10421 3.5 27 8 2 7 25% 8489 70878 13408 46%
c - 14.96 27 257 0 21 4931 26 62676 12260 3.5 27 8 2 7 25% 8542 70878 13408 46%
c - 15.38 27 250 0 22 5253 25 67260 14542 3.5 27 8 2 7 25% 8608 70878 13408 46%
c o 15.63 27 244 0 22 5414 25 70046 16873 3.5 26 8 2 7 25% 8667 70878 13408 46%
c - 15.81 27 239 0 23 5564 24 71955 16238 3.5 26 8 2 6 25% 8698 70878 13408 46%
c - 16.61 27 235 0 24 6133 25 76750 17852 3.5 27 8 2 6 25% 8792 70878 13408 46%
c c 17.21 27 230 0 24 6520 25 79982 20714 3.5 27 8 2 6 25% 8924 69626 13179 45%
c d 17.21 27 230 0 24 6520 25 79982 19773 3.5 27 8 2 6 25% 8466 69626 13179 45%
c u 17.26 27 230 0 24 6520 25 79982 16546 3.5 27 8 2 6 25% 8498 69626 13179 45%
c v 17.32 27 230 0 24 6520 25 79982 14764 3.5 27 8 2 6 25% 8505 69626 13179 45%
c w 17.46 27 230 0 24 6520 25 79982 14742 3.5 27 8 2 6 25% 8505 69626 13179 45%
c = 17.61 27 230 0 24 6520 25 79982 14742 3.5 27 8 2 6 25% 9149 69626 12857 44%
c
c  seconds   switched     rate         size/glue tier1    binary         remaining
c         MB   reductions   conflicts        size  tier2     irredundant
c           level   restarts      redundant    glue   trail         variables
c
c d 17.62 27 230 0 24 6520 25 79982 13900 3.5 27 8 2 6 25% 8432 69626 12853 44%
c t 17.63 27 230 0 24 6520 25 79982 13900 3.5 27 8 2 6 25% 8426 69626 12853 44%
c c 17.68 27 230 0 24 6520 25 79982 13900 3.5 27 8 2 6 25% 8429 69610 12851 44%
c d 17.68 27 230 0 24 6520 25 79982 13894 3.5 27 8 2 6 25% 8425 69610 12851 44%
c u 17.74 27 230 0 24 6520 25 79982 12999 3.5 27 8 2 6 25% 8426 69610 12851 44%
c v 17.78 27 230 0 24 6520 25 79982 12648 3.5 27 8 2 6 25% 8426 69610 12851 44%
c w 17.91 27 230 0 24 6520 25 79982 12589 3.5 27 8 2 6 25% 8426 69610 12851 44%
c x 18.00 27 230 0 24 6520 25 79982 12589 3.5 27 8 2 6 25% 8426 65393 12851 44%
c = 18.35 27 230 0 24 6520 25 79982 12589 3.5 27 8 2 6 25% 8844 65279 12630 44%
c d 18.35 27 230 0 24 6520 25 79982 12401 3.5 27 8 2 6 25% 8388 65279 12630 44%
c t 18.37 27 230 0 24 6520 25 79982 12401 3.5 27 8 2 6 25% 8386 65279 12630 44%
c f 18.38 27 230 0 24 6520 25 79982 12401 3.5 27 8 2 6 25% 8387 65272 12631 44%
c - 18.63 27 228 0 25 6717 25 81648 12253 3.5 27 8 2 6 25% 8400 65272 12631 44%
c - 19.08 27 223 0 26 7043 24 86648 14695 3.5 27 8 2 6 25% 8446 65272 12631 44%
c - 19.86 27 219 0 27 7561 24 91748 17022 3.4 27 8 2 6 26% 8492 65272 12631 44%
c s 20.48 27 213 0 27 7938 24 95828 20558 3.4 27 8 2 6 25% 8540 64095 12631 44%
c e 20.55 27 213 0 27 7938 24 95828 20558 3.4 27 8 2 6 25% 5679 70712 11152 38%
c s 20.56 27 213 0 27 7938 24 95828 20558 3.4 27 8 2 6 25% 5679 70246 11152 38%
c e 20.57 27 213 0 27 7938 24 95828 20558 3.4 27 8 2 6 25% 5670 70312 11121 38%
c ^ 20.57 27 213 0 27 7938 24 95828 20558 3.4 27 8 2 6 25% 5670 70312 11121 38%
c
c  seconds   switched     rate         size/glue tier1    binary         remaining
c         MB   reductions   conflicts        size  tier2     irredundant
c           level   restarts      redundant    glue   trail         variables
c
c - 20.69 27 212 0 28 8031 24 96944 13591 3.4 27 8 2 6 25% 5680 70312 11121 38%
c - 21.57 27 207 0 29 8727 24 102236 16123 3.3 27 8 2 6 26% 5718 70312 11121 38%
c i 21.86 27 205 0 29 8977 24 103892 17660 3.3 27 8 2 6 26% 5730 70312 11120 38%
c d 21.90 27 206 0 29 9006 24 104660 18157 3.3 27 8 2 6 26% 5695 70302 11099 38%
c d 21.90 27 206 0 29 9006 24 104660 18154 3.3 27 8 2 6 26% 5693 70302 11098 38%
c u 21.95 27 206 0 29 9006 24 104660 14977 3.3 27 8 2 6 26% 5718 70302 11098 38%
c v 22.00 27 206 0 29 9006 24 104660 12978 3.3 27 8 2 6 26% 5724 70302 11098 38%
c w 22.08 27 206 0 29 9006 24 104660 12969 3.3 27 8 2 6 26% 5724 70302 11098 38%
c x 22.14 27 206 0 29 9006 24 104660 12969 3.3 27 8 2 6 26% 5724 70294 11098 38%
c = 22.51 27 206 0 29 9006 24 104660 12969 3.3 27 8 2 6 26% 5818 70294 11051 38%
c d 22.51 27 206 0 29 9006 24 104660 12878 3.3 27 8 2 6 26% 5695 70294 11048 38%
c t 22.52 27 206 0 29 9006 24 104660 12878 3.3 27 8 2 6 26% 5687 70294 11048 38%
c f 22.56 27 206 0 29 9006 24 104660 12878 3.3 27 8 2 6 26% 5686 70256 11052 38%
c c 22.59 27 206 0 29 9006 24 104660 12837 3.3 27 8 2 6 26% 5700 70096 11034 38%
c d 22.59 27 206 0 29 9006 24 104660 12837 3.3 27 8 2 6 26% 5670 70096 11034 38%
c u 22.64 27 206 0 29 9006 24 104660 11982 3.3 27 8 2 6 26% 5681 70096 11034 38%
c v 22.68 27 206 0 29 9006 24 104660 11592 3.3 27 8 2 6 26% 5682 70096 11034 38%
c w 22.80 27 206 0 29 9006 24 104660 11425 3.3 27 8 2 6 26% 5682 70096 11034 38%
c d 23.18 27 206 0 29 9006 24 104660 11421 3.3 27 8 2 6 26% 5674 70096 11030 38%
c i 23.20 27 206 0 29 9006 24 104664 11422 3.3 27 8 2 6 26% 5676 70096 11029 38%
c
c  seconds   switched     rate          size/glue tier1    binary         remaining
c         MB   reductions   conflicts         size  tier2     irredundant
c           level   restarts       redundant    glue   trail         variables
c
c i 23.34 27 204 0 29 9130 24 106370 12968 3.3 27 8 2 6 26% 5686 70096 11026 38%
c i 23.40 27 204 0 29 9175 24 107084 13623 3.3 26 8 2 6 26% 5689 70096 11025 38%
c i 23.50 27 203 0 29 9260 24 107539 14053 3.3 26 8 2 6 26% 5691 70096 11024 38%
c - 23.50 27 203 0 30 9262 24 107621 11408 3.3 26 8 1 6 26% 5675 70096 11024 38%
c i 23.71 27 200 0 30 9432 24 109817 13445 3.3 26 8 1 6 26% 5685 70096 11016 38%
c o 23.73 27 200 0 30 9447 24 110048 13668 3.3 26 8 1 6 26% 5685 70096 11016 38%
c i 23.78 27 200 0 30 9488 24 110251 13853 3.3 26 8 1 6 26% 5687 70096 11015 38%
c - 24.09 27 196 0 31 9753 23 113098 13588 3.2 26 8 1 6 26% 5676 70096 11015 38%
c i 24.20 27 194 0 31 9858 23 114267 14676 3.2 26 8 1 6 26% 5682 70096 11014 38%
c i 24.27 27 194 0 31 9904 23 114854 15227 3.2 26 8 1 6 27% 5684 70096 11012 38%
c i 24.46 27 191 0 31 10030 23 116870 17092 3.2 26 8 1 6 27% 5690 70096 11010 38%
c i 24.47 27 191 0 31 10046 23 117001 17211 3.2 26 8 1 6 27% 5691 70096 11008 38%
c i 24.55 27 189 0 31 10123 23 118274 18335 3.2 25 8 1 6 27% 5701 70096 11007 38%
c - 24.57 27 189 0 32 10137 22 118665 15207 3.2 25 8 1 6 27% 5695 70096 11007 38%
c i 24.62 27 188 0 32 10181 22 119395 15846 3.1 25 8 1 6 27% 5701 70096 11006 38%
c i 24.63 27 187 0 32 10198 22 119618 16026 3.1 25 8 1 6 26% 5704 70096 11005 38%
c i 24.64 27 187 0 32 10212 22 119897 16244 3.1 25 8 1 6 26% 5711 70096 11004 38%
c i 24.66 27 186 0 32 10235 22 120286 16582 3.1 25 8 1 6 26% 5719 70096 11003 38%
c i 24.67 27 186 0 32 10250 22 120466 16733 3.1 25 8 1 6 26% 5724 70096 11002 38%
c i 24.67 27 186 0 32 10261 22 120587 16817 3.1 25 8 1 6 26% 5726 70096 11001 38%
c
c  seconds   switched      rate          size/glue tier1    binary         remaining
c         MB   reductions    conflicts         size  tier2     irredundant
c           level   restarts        redundant    glue   trail         variables
c
c i 24.69 27 185 0 32 10282 22 120987 17141 3.1 25 8 1 6 26% 5734 70096 11000 38%
c i 24.69 27 185 0 32 10291 22 121150 17274 3.1 25 8 1 6 26% 5739 70096 10999 38%
c i 24.70 27 184 0 32 10306 22 121585 17647 3.1 25 8 1 6 26% 5744 70096 10998 38%
c i 24.72 27 183 0 32 10322 22 122207 18086 3.1 25 8 1 6 26% 5759 70096 10997 38%
c i 24.72 27 183 0 32 10326 22 122356 18200 3.1 25 8 1 6 26% 5763 70096 10996 38%
c i 24.72 27 183 0 32 10326 22 122390 18208 3.1 25 8 1 6 26% 5770 70096 10995 38%
c i 24.74 27 181 0 32 10348 22 123167 18876 3.1 25 8 1 6 26% 5782 70096 10993 38%
c i 24.75 27 180 0 32 10356 21 123516 19149 3.1 25 8 1 6 26% 5790 70096 10992 38%
c i 24.75 27 180 0 32 10356 21 123722 19275 3.1 25 8 1 6 26% 5794 70096 10990 38%
c i 24.75 27 180 0 32 10356 21 123783 19306 3.1 25 8 1 6 26% 5803 70096 10989 38%
c i 24.75 27 180 0 32 10356 21 123793 19306 3.1 25 8 1 6 26% 5804 70096 10988 38%
c i 24.75 27 180 0 32 10356 21 123808 19311 3.1 25 8 1 6 25% 5808 70096 10987 38%
c } 24.75 27 180 0 32 10356 21 123814 19312 3.1 25 8 1 6 25% 5811 70096 10969 38%
c 0 24.75 27 180 0 32 10356 21 123814 19312 3.1 25 8 1 6 25% 5811 70096 10969 38%
c
c ---- [ result ] ------------------------------------------------------------
c
s UNSATISFIABLE
c
c ---- [ profiling ] ---------------------------------------------------------
c
c          17.39   70.28 %  search
c          17.39   70.28 %  focused
c           7.00   28.30 %  simplify
c           6.74   27.24 %  probe
c           2.82   11.41 %  sweep
c           2.51   10.13 %  vivify
c           0.46    1.87 %  factor
c           0.45    1.81 %  congruence
c           0.44    1.77 %  eliminate
c           0.37    1.48 %  substitute
c           0.31    1.25 %  preprocess
c           0.14    0.56 %  reduce
c           0.13    0.51 %  fastel
c           0.10    0.40 %  transitive
c           0.07    0.30 %  subsume
c           0.04    0.16 %  backbone
c           0.02    0.10 %  lucky
c           0.02    0.08 %  parse
c =============================================
c          24.75  100.00 %  total
c
c ---- [ statistics ] --------------------------------------------------------
c
c chronological:                         4731                4 %  conflicts
c conflicts:                           123814             5002.21 per second
c congruent:                             3754               13 %  variables
c decisions:                          2697932               21.79 per conflict
c eliminated:                           12465               43 %  variables
c factored:                              4744               16 %  variables
c fast_eliminated:                       8819               71 %  eliminated
c fast_strengthened:                       41               10 %  per strengthened
c fast_subsumed:                           69                0 %  per subsumed
c iterations:                              31                0 %  variables
c propagations:                     106679119          4309943    per second
c reductions:                              32             3869    interval
c reordered:                                5            24763    interval
c restarts:                             10356               12    interval
c strengthened:                           430                0 %  checks
c substituted:                          10253               35 %  variables
c subsumed:                             14779                1 %  checks
c switched:                                 0                0    interval
c vivified:                             59693               13 %  checks
c
c ---- [ glue usage ] --------------------------------------------------------
c
c focused glue 1   used 146383 clauses 50.17% accumulated 50.17% tier1
c focused glue 2   used  67015 clauses 22.97% accumulated 73.13%
c focused glue 3-4 used  35332 clauses 12.11% accumulated 85.24%
c focused glue 5   used   9304 clauses  3.19% accumulated 88.43%
c focused glue 6   used   6886 clauses  2.36% accumulated 90.79% tier2
c
c ---- [ resources ] ---------------------------------------------------------
c
c maximum-resident-set-size:         28180480 bytes         27 MB
c process-time:                            25s              24.75 seconds
c
c ---- [ shutting down ] -----------------------------------------------------
c
c exit 20
